c SAT-encoding for the no-three-in-line problem of dimension N=2 (IDEN)
c Generated by n3ilsat.py
p cnf 8 16
6 0
-3 -1 7 0
-5 4 0
-4 -3 5 0
5 0
-7 1 0
8 0
-5 3 0
-6 1 0
-8 2 0
7 0
-4 -2 8 0
-7 3 0
-2 -1 6 0
-8 4 0
-6 2 0
